c dimacs generated by FastEx
c f501 57
c f510 56
c f511 55
c g51 46
c s1_51 47
c s1_52 49
c s1_53 51
c s1_54 53
c s2_51 48
c s2_52 50
c s2_53 52
c s2_54 54
c x1_51 2
c x1_510 29
c x1_511 32
c x1_512 35
c x1_513 38
c x1_514 41
c x1_515 44
c x1_52 5
c x1_53 8
c x1_54 11
c x1_55 14
c x1_56 17
c x1_57 20
c x1_58 23
c x1_59 26
c x2_51 3
c x2_510 30
c x2_511 33
c x2_512 36
c x2_513 39
c x2_514 42
c x2_515 45
c x2_52 6
c x2_53 9
c x2_54 12
c x2_55 15
c x2_56 18
c x2_57 21
c x2_58 24
c x2_59 27
c x51 1
c x510 28
c x511 31
c x512 34
c x513 37
c x514 40
c x515 43
c x52 4
c x53 7
c x54 10
c x55 13
c x56 16
c x57 19
c x58 22
c x59 25
p cnf 57 271
1 2 -3 -57 0
1 -2 3 -56 0
1 -2 -3 -55 0
-1 2 -3 57 0
-1 -2 3 56 0
-1 -2 -3 55 0
-1 2 3 0
-47 -2 0
-48 -3 0
-49 -2 0
-50 -3 0
-51 -2 0
-52 -3 0
-53 2 0
-54 3 0
47 49 51 53 0
48 50 52 54 0
4 5 -6 -57 0
4 -5 6 -56 0
4 -5 -6 -55 0
-4 5 -6 57 0
-4 -5 6 56 0
-4 -5 -6 55 0
-4 5 6 0
-47 -5 0
-48 -6 0
-49 -5 0
-50 -6 0
-51 5 0
-52 6 0
-53 -5 0
-54 -6 0
47 49 51 53 0
48 50 52 54 0
7 8 -9 -57 0
7 -8 9 -56 0
7 -8 -9 -55 0
-7 8 -9 57 0
-7 -8 9 56 0
-7 -8 -9 55 0
-7 8 9 0
-47 -8 0
-48 -9 0
-49 -8 0
-50 -9 0
-51 8 0
-52 9 0
-53 8 0
-54 9 0
47 49 51 53 0
48 50 52 54 0
10 11 -12 -57 0
10 -11 12 -56 0
10 -11 -12 -55 0
-10 11 -12 57 0
-10 -11 12 56 0
-10 -11 -12 55 0
-10 11 12 0
-47 -11 0
-48 -12 0
-49 11 0
-50 12 0
-51 -11 0
-52 -12 0
-53 -11 0
-54 -12 0
47 49 51 53 0
48 50 52 54 0
13 14 -15 -57 0
13 -14 15 -56 0
13 -14 -15 -55 0
-13 14 -15 57 0
-13 -14 15 56 0
-13 -14 -15 55 0
-13 14 15 0
-47 -14 0
-48 -15 0
-49 14 0
-50 15 0
-51 -14 0
-52 -15 0
-53 14 0
-54 15 0
47 49 51 53 0
48 50 52 54 0
16 17 -18 -57 0
16 -17 18 -56 0
16 -17 -18 -55 0
-16 17 -18 57 0
-16 -17 18 56 0
-16 -17 -18 55 0
-16 17 18 0
-47 -17 0
-48 -18 0
-49 17 0
-50 18 0
-51 17 0
-52 18 0
-53 -17 0
-54 -18 0
47 49 51 53 0
48 50 52 54 0
19 20 -21 -57 0
19 -20 21 -56 0
19 -20 -21 -55 0
-19 20 -21 57 0
-19 -20 21 56 0
-19 -20 -21 55 0
-19 20 21 0
-47 -20 0
-48 -21 0
-49 20 0
-50 21 0
-51 20 0
-52 21 0
-53 20 0
-54 21 0
47 49 51 53 0
48 50 52 54 0
22 23 -24 -57 0
22 -23 24 -56 0
22 -23 -24 -55 0
-22 23 -24 57 0
-22 -23 24 56 0
-22 -23 -24 55 0
-22 23 24 0
-47 23 0
-48 24 0
-49 -23 0
-50 -24 0
-51 -23 0
-52 -24 0
-53 -23 0
-54 -24 0
47 49 51 53 0
48 50 52 54 0
25 26 -27 -57 0
25 -26 27 -56 0
25 -26 -27 -55 0
-25 26 -27 57 0
-25 -26 27 56 0
-25 -26 -27 55 0
-25 26 27 0
-47 26 0
-48 27 0
-49 -26 0
-50 -27 0
-51 -26 0
-52 -27 0
-53 26 0
-54 27 0
47 49 51 53 0
48 50 52 54 0
28 29 -30 -57 0
28 -29 30 -56 0
28 -29 -30 -55 0
-28 29 -30 57 0
-28 -29 30 56 0
-28 -29 -30 55 0
-28 29 30 0
-47 29 0
-48 30 0
-49 -29 0
-50 -30 0
-51 29 0
-52 30 0
-53 -29 0
-54 -30 0
47 49 51 53 0
48 50 52 54 0
31 32 -33 -57 0
31 -32 33 -56 0
31 -32 -33 -55 0
-31 32 -33 57 0
-31 -32 33 56 0
-31 -32 -33 55 0
-31 32 33 0
-47 32 0
-48 33 0
-49 -32 0
-50 -33 0
-51 32 0
-52 33 0
-53 32 0
-54 33 0
47 49 51 53 0
48 50 52 54 0
34 35 -36 -57 0
34 -35 36 -56 0
34 -35 -36 -55 0
-34 35 -36 57 0
-34 -35 36 56 0
-34 -35 -36 55 0
-34 35 36 0
-47 35 0
-48 36 0
-49 35 0
-50 36 0
-51 -35 0
-52 -36 0
-53 -35 0
-54 -36 0
47 49 51 53 0
48 50 52 54 0
37 38 -39 -57 0
37 -38 39 -56 0
37 -38 -39 -55 0
-37 38 -39 57 0
-37 -38 39 56 0
-37 -38 -39 55 0
-37 38 39 0
-47 38 0
-48 39 0
-49 38 0
-50 39 0
-51 -38 0
-52 -39 0
-53 38 0
-54 39 0
47 49 51 53 0
48 50 52 54 0
40 41 -42 -57 0
40 -41 42 -56 0
40 -41 -42 -55 0
-40 41 -42 57 0
-40 -41 42 56 0
-40 -41 -42 55 0
-40 41 42 0
-47 41 0
-48 42 0
-49 41 0
-50 42 0
-51 41 0
-52 42 0
-53 -41 0
-54 -42 0
47 49 51 53 0
48 50 52 54 0
43 44 -45 -57 0
43 -44 45 -56 0
43 -44 -45 -55 0
-43 44 -45 57 0
-43 -44 45 56 0
-43 -44 -45 55 0
-43 44 45 0
-47 44 0
-48 45 0
-49 44 0
-50 45 0
-51 44 0
-52 45 0
-53 44 0
-54 45 0
47 49 51 53 0
48 50 52 54 0
-46 -1 0
-46 -4 0
-46 -7 0
-46 -10 0
-46 -13 0
-46 -16 0
-46 -19 0
-46 -22 0
-46 -25 0
-46 -28 0
-46 -31 0
-46 -34 0
-46 -37 0
-46 -40 0
-46 43 0
46 0
